53437
52, 15, 36, 46, 39, 16, 10, 22, 29, 21, 23, 49, 26, 55, 28, 6, 3, 43, 40, 51, 13, 5, 37, 7, 20, 50, 24, 35, 41, 32, 8, 38, 44, 19, 48, 17, 53, 34, 54, 47, 30, 4, 18, 12, 9, 14, 2, 42, 33, 1, 27, 31, 25, 11, 45
